c File: flat175_3_0.col
c
c SOURCE: Joseph Culberson (joe@cs.ualberta.ca)
c DESCRIPTION: Quasi-random coloring problem
c              generated with flatness = 0
c                             probability = 0.041
c                             known coloring = 3
c                             random seed = 1043
c              Creation Date:  Wed Feb 24 10:55:09 1999
c Maximum degree = 8 Minimum degree = 0
c COLOR VERIFICATION: Using the permuted order
c under simple greedy yields the specified
c coloring number
c Color = 3 specified partitions = 3
c p edge 175 417
c cnf created by edge2cnf
p cnf 525 1951
-1 -2 0
-1 -3 0
-2 -3 0
1 2 3 0
-4 -5 0
-4 -6 0
-5 -6 0
4 5 6 0
-7 -8 0
-7 -9 0
-8 -9 0
7 8 9 0
-10 -11 0
-10 -12 0
-11 -12 0
10 11 12 0
-13 -14 0
-13 -15 0
-14 -15 0
13 14 15 0
-16 -17 0
-16 -18 0
-17 -18 0
16 17 18 0
-19 -20 0
-19 -21 0
-20 -21 0
19 20 21 0
-22 -23 0
-22 -24 0
-23 -24 0
22 23 24 0
-25 -26 0
-25 -27 0
-26 -27 0
25 26 27 0
-28 -29 0
-28 -30 0
-29 -30 0
28 29 30 0
-31 -32 0
-31 -33 0
-32 -33 0
31 32 33 0
-34 -35 0
-34 -36 0
-35 -36 0
34 35 36 0
-37 -38 0
-37 -39 0
-38 -39 0
37 38 39 0
-40 -41 0
-40 -42 0
-41 -42 0
40 41 42 0
-43 -44 0
-43 -45 0
-44 -45 0
43 44 45 0
-46 -47 0
-46 -48 0
-47 -48 0
46 47 48 0
-49 -50 0
-49 -51 0
-50 -51 0
49 50 51 0
-52 -53 0
-52 -54 0
-53 -54 0
52 53 54 0
-55 -56 0
-55 -57 0
-56 -57 0
55 56 57 0
-58 -59 0
-58 -60 0
-59 -60 0
58 59 60 0
-61 -62 0
-61 -63 0
-62 -63 0
61 62 63 0
-64 -65 0
-64 -66 0
-65 -66 0
64 65 66 0
-67 -68 0
-67 -69 0
-68 -69 0
67 68 69 0
-70 -71 0
-70 -72 0
-71 -72 0
70 71 72 0
-73 -74 0
-73 -75 0
-74 -75 0
73 74 75 0
-76 -77 0
-76 -78 0
-77 -78 0
76 77 78 0
-79 -80 0
-79 -81 0
-80 -81 0
79 80 81 0
-82 -83 0
-82 -84 0
-83 -84 0
82 83 84 0
-85 -86 0
-85 -87 0
-86 -87 0
85 86 87 0
-88 -89 0
-88 -90 0
-89 -90 0
88 89 90 0
-91 -92 0
-91 -93 0
-92 -93 0
91 92 93 0
-94 -95 0
-94 -96 0
-95 -96 0
94 95 96 0
-97 -98 0
-97 -99 0
-98 -99 0
97 98 99 0
-100 -101 0
-100 -102 0
-101 -102 0
100 101 102 0
-103 -104 0
-103 -105 0
-104 -105 0
103 104 105 0
-106 -107 0
-106 -108 0
-107 -108 0
106 107 108 0
-109 -110 0
-109 -111 0
-110 -111 0
109 110 111 0
-112 -113 0
-112 -114 0
-113 -114 0
112 113 114 0
-115 -116 0
-115 -117 0
-116 -117 0
115 116 117 0
-118 -119 0
-118 -120 0
-119 -120 0
118 119 120 0
-121 -122 0
-121 -123 0
-122 -123 0
121 122 123 0
-124 -125 0
-124 -126 0
-125 -126 0
124 125 126 0
-127 -128 0
-127 -129 0
-128 -129 0
127 128 129 0
-130 -131 0
-130 -132 0
-131 -132 0
130 131 132 0
-133 -134 0
-133 -135 0
-134 -135 0
133 134 135 0
-136 -137 0
-136 -138 0
-137 -138 0
136 137 138 0
-139 -140 0
-139 -141 0
-140 -141 0
139 140 141 0
-142 -143 0
-142 -144 0
-143 -144 0
142 143 144 0
-145 -146 0
-145 -147 0
-146 -147 0
145 146 147 0
-148 -149 0
-148 -150 0
-149 -150 0
148 149 150 0
-151 -152 0
-151 -153 0
-152 -153 0
151 152 153 0
-154 -155 0
-154 -156 0
-155 -156 0
154 155 156 0
-157 -158 0
-157 -159 0
-158 -159 0
157 158 159 0
-160 -161 0
-160 -162 0
-161 -162 0
160 161 162 0
-163 -164 0
-163 -165 0
-164 -165 0
163 164 165 0
-166 -167 0
-166 -168 0
-167 -168 0
166 167 168 0
-169 -170 0
-169 -171 0
-170 -171 0
169 170 171 0
-172 -173 0
-172 -174 0
-173 -174 0
172 173 174 0
-175 -176 0
-175 -177 0
-176 -177 0
175 176 177 0
-178 -179 0
-178 -180 0
-179 -180 0
178 179 180 0
-181 -182 0
-181 -183 0
-182 -183 0
181 182 183 0
-184 -185 0
-184 -186 0
-185 -186 0
184 185 186 0
-187 -188 0
-187 -189 0
-188 -189 0
187 188 189 0
-190 -191 0
-190 -192 0
-191 -192 0
190 191 192 0
-193 -194 0
-193 -195 0
-194 -195 0
193 194 195 0
-196 -197 0
-196 -198 0
-197 -198 0
196 197 198 0
-199 -200 0
-199 -201 0
-200 -201 0
199 200 201 0
-202 -203 0
-202 -204 0
-203 -204 0
202 203 204 0
-205 -206 0
-205 -207 0
-206 -207 0
205 206 207 0
-208 -209 0
-208 -210 0
-209 -210 0
208 209 210 0
-211 -212 0
-211 -213 0
-212 -213 0
211 212 213 0
-214 -215 0
-214 -216 0
-215 -216 0
214 215 216 0
-217 -218 0
-217 -219 0
-218 -219 0
217 218 219 0
-220 -221 0
-220 -222 0
-221 -222 0
220 221 222 0
-223 -224 0
-223 -225 0
-224 -225 0
223 224 225 0
-226 -227 0
-226 -228 0
-227 -228 0
226 227 228 0
-229 -230 0
-229 -231 0
-230 -231 0
229 230 231 0
-232 -233 0
-232 -234 0
-233 -234 0
232 233 234 0
-235 -236 0
-235 -237 0
-236 -237 0
235 236 237 0
-238 -239 0
-238 -240 0
-239 -240 0
238 239 240 0
-241 -242 0
-241 -243 0
-242 -243 0
241 242 243 0
-244 -245 0
-244 -246 0
-245 -246 0
244 245 246 0
-247 -248 0
-247 -249 0
-248 -249 0
247 248 249 0
-250 -251 0
-250 -252 0
-251 -252 0
250 251 252 0
-253 -254 0
-253 -255 0
-254 -255 0
253 254 255 0
-256 -257 0
-256 -258 0
-257 -258 0
256 257 258 0
-259 -260 0
-259 -261 0
-260 -261 0
259 260 261 0
-262 -263 0
-262 -264 0
-263 -264 0
262 263 264 0
-265 -266 0
-265 -267 0
-266 -267 0
265 266 267 0
-268 -269 0
-268 -270 0
-269 -270 0
268 269 270 0
-271 -272 0
-271 -273 0
-272 -273 0
271 272 273 0
-274 -275 0
-274 -276 0
-275 -276 0
274 275 276 0
-277 -278 0
-277 -279 0
-278 -279 0
277 278 279 0
-280 -281 0
-280 -282 0
-281 -282 0
280 281 282 0
-283 -284 0
-283 -285 0
-284 -285 0
283 284 285 0
-286 -287 0
-286 -288 0
-287 -288 0
286 287 288 0
-289 -290 0
-289 -291 0
-290 -291 0
289 290 291 0
-292 -293 0
-292 -294 0
-293 -294 0
292 293 294 0
-295 -296 0
-295 -297 0
-296 -297 0
295 296 297 0
-298 -299 0
-298 -300 0
-299 -300 0
298 299 300 0
-301 -302 0
-301 -303 0
-302 -303 0
301 302 303 0
-304 -305 0
-304 -306 0
-305 -306 0
304 305 306 0
-307 -308 0
-307 -309 0
-308 -309 0
307 308 309 0
-310 -311 0
-310 -312 0
-311 -312 0
310 311 312 0
-313 -314 0
-313 -315 0
-314 -315 0
313 314 315 0
-316 -317 0
-316 -318 0
-317 -318 0
316 317 318 0
-319 -320 0
-319 -321 0
-320 -321 0
319 320 321 0
-322 -323 0
-322 -324 0
-323 -324 0
322 323 324 0
-325 -326 0
-325 -327 0
-326 -327 0
325 326 327 0
-328 -329 0
-328 -330 0
-329 -330 0
328 329 330 0
-331 -332 0
-331 -333 0
-332 -333 0
331 332 333 0
-334 -335 0
-334 -336 0
-335 -336 0
334 335 336 0
-337 -338 0
-337 -339 0
-338 -339 0
337 338 339 0
-340 -341 0
-340 -342 0
-341 -342 0
340 341 342 0
-343 -344 0
-343 -345 0
-344 -345 0
343 344 345 0
-346 -347 0
-346 -348 0
-347 -348 0
346 347 348 0
-349 -350 0
-349 -351 0
-350 -351 0
349 350 351 0
-352 -353 0
-352 -354 0
-353 -354 0
352 353 354 0
-355 -356 0
-355 -357 0
-356 -357 0
355 356 357 0
-358 -359 0
-358 -360 0
-359 -360 0
358 359 360 0
-361 -362 0
-361 -363 0
-362 -363 0
361 362 363 0
-364 -365 0
-364 -366 0
-365 -366 0
364 365 366 0
-367 -368 0
-367 -369 0
-368 -369 0
367 368 369 0
-370 -371 0
-370 -372 0
-371 -372 0
370 371 372 0
-373 -374 0
-373 -375 0
-374 -375 0
373 374 375 0
-376 -377 0
-376 -378 0
-377 -378 0
376 377 378 0
-379 -380 0
-379 -381 0
-380 -381 0
379 380 381 0
-382 -383 0
-382 -384 0
-383 -384 0
382 383 384 0
-385 -386 0
-385 -387 0
-386 -387 0
385 386 387 0
-388 -389 0
-388 -390 0
-389 -390 0
388 389 390 0
-391 -392 0
-391 -393 0
-392 -393 0
391 392 393 0
-394 -395 0
-394 -396 0
-395 -396 0
394 395 396 0
-397 -398 0
-397 -399 0
-398 -399 0
397 398 399 0
-400 -401 0
-400 -402 0
-401 -402 0
400 401 402 0
-403 -404 0
-403 -405 0
-404 -405 0
403 404 405 0
-406 -407 0
-406 -408 0
-407 -408 0
406 407 408 0
-409 -410 0
-409 -411 0
-410 -411 0
409 410 411 0
-412 -413 0
-412 -414 0
-413 -414 0
412 413 414 0
-415 -416 0
-415 -417 0
-416 -417 0
415 416 417 0
-418 -419 0
-418 -420 0
-419 -420 0
418 419 420 0
-421 -422 0
-421 -423 0
-422 -423 0
421 422 423 0
-424 -425 0
-424 -426 0
-425 -426 0
424 425 426 0
-427 -428 0
-427 -429 0
-428 -429 0
427 428 429 0
-430 -431 0
-430 -432 0
-431 -432 0
430 431 432 0
-433 -434 0
-433 -435 0
-434 -435 0
433 434 435 0
-436 -437 0
-436 -438 0
-437 -438 0
436 437 438 0
-439 -440 0
-439 -441 0
-440 -441 0
439 440 441 0
-442 -443 0
-442 -444 0
-443 -444 0
442 443 444 0
-445 -446 0
-445 -447 0
-446 -447 0
445 446 447 0
-448 -449 0
-448 -450 0
-449 -450 0
448 449 450 0
-451 -452 0
-451 -453 0
-452 -453 0
451 452 453 0
-454 -455 0
-454 -456 0
-455 -456 0
454 455 456 0
-457 -458 0
-457 -459 0
-458 -459 0
457 458 459 0
-460 -461 0
-460 -462 0
-461 -462 0
460 461 462 0
-463 -464 0
-463 -465 0
-464 -465 0
463 464 465 0
-466 -467 0
-466 -468 0
-467 -468 0
466 467 468 0
-469 -470 0
-469 -471 0
-470 -471 0
469 470 471 0
-472 -473 0
-472 -474 0
-473 -474 0
472 473 474 0
-475 -476 0
-475 -477 0
-476 -477 0
475 476 477 0
-478 -479 0
-478 -480 0
-479 -480 0
478 479 480 0
-481 -482 0
-481 -483 0
-482 -483 0
481 482 483 0
-484 -485 0
-484 -486 0
-485 -486 0
484 485 486 0
-487 -488 0
-487 -489 0
-488 -489 0
487 488 489 0
-490 -491 0
-490 -492 0
-491 -492 0
490 491 492 0
-493 -494 0
-493 -495 0
-494 -495 0
493 494 495 0
-496 -497 0
-496 -498 0
-497 -498 0
496 497 498 0
-499 -500 0
-499 -501 0
-500 -501 0
499 500 501 0
-502 -503 0
-502 -504 0
-503 -504 0
502 503 504 0
-505 -506 0
-505 -507 0
-506 -507 0
505 506 507 0
-508 -509 0
-508 -510 0
-509 -510 0
508 509 510 0
-511 -512 0
-511 -513 0
-512 -513 0
511 512 513 0
-514 -515 0
-514 -516 0
-515 -516 0
514 515 516 0
-517 -518 0
-517 -519 0
-518 -519 0
517 518 519 0
-520 -521 0
-520 -522 0
-521 -522 0
520 521 522 0
-523 -524 0
-523 -525 0
-524 -525 0
523 524 525 0
-136 -1 0
-137 -2 0
-138 -3 0
-142 -1 0
-143 -2 0
-144 -3 0
-223 -1 0
-224 -2 0
-225 -3 0
-265 -1 0
-266 -2 0
-267 -3 0
-316 -1 0
-317 -2 0
-318 -3 0
-370 -1 0
-371 -2 0
-372 -3 0
-520 -1 0
-521 -2 0
-522 -3 0
-40 -4 0
-41 -5 0
-42 -6 0
-106 -4 0
-107 -5 0
-108 -6 0
-190 -4 0
-191 -5 0
-192 -6 0
-253 -4 0
-254 -5 0
-255 -6 0
-355 -4 0
-356 -5 0
-357 -6 0
-406 -4 0
-407 -5 0
-408 -6 0
-472 -4 0
-473 -5 0
-474 -6 0
-493 -4 0
-494 -5 0
-495 -6 0
-64 -7 0
-65 -8 0
-66 -9 0
-73 -7 0
-74 -8 0
-75 -9 0
-142 -7 0
-143 -8 0
-144 -9 0
-187 -7 0
-188 -8 0
-189 -9 0
-193 -7 0
-194 -8 0
-195 -9 0
-277 -7 0
-278 -8 0
-279 -9 0
-466 -7 0
-467 -8 0
-468 -9 0
-502 -7 0
-503 -8 0
-504 -9 0
-94 -10 0
-95 -11 0
-96 -12 0
-199 -10 0
-200 -11 0
-201 -12 0
-220 -10 0
-221 -11 0
-222 -12 0
-385 -10 0
-386 -11 0
-387 -12 0
-490 -10 0
-491 -11 0
-492 -12 0
-517 -10 0
-518 -11 0
-519 -12 0
-25 -13 0
-26 -14 0
-27 -15 0
-46 -13 0
-47 -14 0
-48 -15 0
-85 -13 0
-86 -14 0
-87 -15 0
-499 -13 0
-500 -14 0
-501 -15 0
-109 -16 0
-110 -17 0
-111 -18 0
-271 -16 0
-272 -17 0
-273 -18 0
-217 -19 0
-218 -20 0
-219 -21 0
-319 -19 0
-320 -20 0
-321 -21 0
-397 -19 0
-398 -20 0
-399 -21 0
-190 -22 0
-191 -23 0
-192 -24 0
-223 -22 0
-224 -23 0
-225 -24 0
-238 -22 0
-239 -23 0
-240 -24 0
-247 -22 0
-248 -23 0
-249 -24 0
-481 -22 0
-482 -23 0
-483 -24 0
-520 -22 0
-521 -23 0
-522 -24 0
-115 -25 0
-116 -26 0
-117 -27 0
-172 -25 0
-173 -26 0
-174 -27 0
-202 -25 0
-203 -26 0
-204 -27 0
-259 -25 0
-260 -26 0
-261 -27 0
-457 -25 0
-458 -26 0
-459 -27 0
-253 -28 0
-254 -29 0
-255 -30 0
-274 -28 0
-275 -29 0
-276 -30 0
-391 -28 0
-392 -29 0
-393 -30 0
-265 -31 0
-266 -32 0
-267 -33 0
-292 -34 0
-293 -35 0
-294 -36 0
-376 -34 0
-377 -35 0
-378 -36 0
-436 -34 0
-437 -35 0
-438 -36 0
-460 -34 0
-461 -35 0
-462 -36 0
-481 -34 0
-482 -35 0
-483 -36 0
-250 -37 0
-251 -38 0
-252 -39 0
-316 -37 0
-317 -38 0
-318 -39 0
-334 -37 0
-335 -38 0
-336 -39 0
-373 -37 0
-374 -38 0
-375 -39 0
-79 -40 0
-80 -41 0
-81 -42 0
-82 -40 0
-83 -41 0
-84 -42 0
-121 -40 0
-122 -41 0
-123 -42 0
-202 -40 0
-203 -41 0
-204 -42 0
-316 -40 0
-317 -41 0
-318 -42 0
-85 -43 0
-86 -44 0
-87 -45 0
-109 -43 0
-110 -44 0
-111 -45 0
-154 -43 0
-155 -44 0
-156 -45 0
-244 -43 0
-245 -44 0
-246 -45 0
-388 -43 0
-389 -44 0
-390 -45 0
-436 -43 0
-437 -44 0
-438 -45 0
-115 -46 0
-116 -47 0
-117 -48 0
-268 -46 0
-269 -47 0
-270 -48 0
-376 -46 0
-377 -47 0
-378 -48 0
-391 -46 0
-392 -47 0
-393 -48 0
-244 -49 0
-245 -50 0
-246 -51 0
-370 -49 0
-371 -50 0
-372 -51 0
-373 -49 0
-374 -50 0
-375 -51 0
-451 -49 0
-452 -50 0
-453 -51 0
-454 -49 0
-455 -50 0
-456 -51 0
-127 -52 0
-128 -53 0
-129 -54 0
-349 -52 0
-350 -53 0
-351 -54 0
-364 -52 0
-365 -53 0
-366 -54 0
-475 -52 0
-476 -53 0
-477 -54 0
-187 -55 0
-188 -56 0
-189 -57 0
-268 -55 0
-269 -56 0
-270 -57 0
-358 -55 0
-359 -56 0
-360 -57 0
-97 -58 0
-98 -59 0
-99 -60 0
-211 -58 0
-212 -59 0
-213 -60 0
-214 -58 0
-215 -59 0
-216 -60 0
-283 -58 0
-284 -59 0
-285 -60 0
-361 -58 0
-362 -59 0
-363 -60 0
-385 -58 0
-386 -59 0
-387 -60 0
-88 -61 0
-89 -62 0
-90 -63 0
-127 -61 0
-128 -62 0
-129 -63 0
-307 -61 0
-308 -62 0
-309 -63 0
-352 -61 0
-353 -62 0
-354 -63 0
-157 -64 0
-158 -65 0
-159 -66 0
-178 -64 0
-179 -65 0
-180 -66 0
-349 -64 0
-350 -65 0
-351 -66 0
-70 -67 0
-71 -68 0
-72 -69 0
-85 -67 0
-86 -68 0
-87 -69 0
-148 -67 0
-149 -68 0
-150 -69 0
-334 -67 0
-335 -68 0
-336 -69 0
-379 -67 0
-380 -68 0
-381 -69 0
-478 -67 0
-479 -68 0
-480 -69 0
-190 -70 0
-191 -71 0
-192 -72 0
-193 -70 0
-194 -71 0
-195 -72 0
-265 -70 0
-266 -71 0
-267 -72 0
-322 -70 0
-323 -71 0
-324 -72 0
-325 -70 0
-326 -71 0
-327 -72 0
-367 -70 0
-368 -71 0
-369 -72 0
-253 -73 0
-254 -74 0
-255 -75 0
-340 -73 0
-341 -74 0
-342 -75 0
-265 -76 0
-266 -77 0
-267 -78 0
-106 -79 0
-107 -80 0
-108 -81 0
-496 -79 0
-497 -80 0
-498 -81 0
-148 -82 0
-149 -83 0
-150 -84 0
-193 -82 0
-194 -83 0
-195 -84 0
-226 -82 0
-227 -83 0
-228 -84 0
-292 -82 0
-293 -83 0
-294 -84 0
-307 -82 0
-308 -83 0
-309 -84 0
-448 -82 0
-449 -83 0
-450 -84 0
-112 -85 0
-113 -86 0
-114 -87 0
-151 -85 0
-152 -86 0
-153 -87 0
-166 -85 0
-167 -86 0
-168 -87 0
-418 -85 0
-419 -86 0
-420 -87 0
-439 -85 0
-440 -86 0
-441 -87 0
-175 -88 0
-176 -89 0
-177 -90 0
-310 -88 0
-311 -89 0
-312 -90 0
-322 -88 0
-323 -89 0
-324 -90 0
-490 -88 0
-491 -89 0
-492 -90 0
-268 -91 0
-269 -92 0
-270 -93 0
-331 -91 0
-332 -92 0
-333 -93 0
-364 -91 0
-365 -92 0
-366 -93 0
-502 -91 0
-503 -92 0
-504 -93 0
-349 -94 0
-350 -95 0
-351 -96 0
-406 -94 0
-407 -95 0
-408 -96 0
-466 -94 0
-467 -95 0
-468 -96 0
-229 -97 0
-230 -98 0
-231 -99 0
-313 -97 0
-314 -98 0
-315 -99 0
-472 -97 0
-473 -98 0
-474 -99 0
-253 -100 0
-254 -101 0
-255 -102 0
-355 -100 0
-356 -101 0
-357 -102 0
-376 -100 0
-377 -101 0
-378 -102 0
-118 -103 0
-119 -104 0
-120 -105 0
-217 -103 0
-218 -104 0
-219 -105 0
-250 -103 0
-251 -104 0
-252 -105 0
-256 -103 0
-257 -104 0
-258 -105 0
-313 -103 0
-314 -104 0
-315 -105 0
-481 -103 0
-482 -104 0
-483 -105 0
-298 -106 0
-299 -107 0
-300 -108 0
-316 -106 0
-317 -107 0
-318 -108 0
-322 -106 0
-323 -107 0
-324 -108 0
-337 -106 0
-338 -107 0
-339 -108 0
-430 -106 0
-431 -107 0
-432 -108 0
-460 -106 0
-461 -107 0
-462 -108 0
-316 -109 0
-317 -110 0
-318 -111 0
-355 -109 0
-356 -110 0
-357 -111 0
-394 -109 0
-395 -110 0
-396 -111 0
-451 -109 0
-452 -110 0
-453 -111 0
-487 -109 0
-488 -110 0
-489 -111 0
-232 -112 0
-233 -113 0
-234 -114 0
-280 -112 0
-281 -113 0
-282 -114 0
-448 -112 0
-449 -113 0
-450 -114 0
-463 -112 0
-464 -113 0
-465 -114 0
-481 -112 0
-482 -113 0
-483 -114 0
-148 -118 0
-149 -119 0
-150 -120 0
-340 -118 0
-341 -119 0
-342 -120 0
-346 -118 0
-347 -119 0
-348 -120 0
-427 -118 0
-428 -119 0
-429 -120 0
-472 -118 0
-473 -119 0
-474 -120 0
-208 -121 0
-209 -122 0
-210 -123 0
-331 -121 0
-332 -122 0
-333 -123 0
-490 -121 0
-491 -122 0
-492 -123 0
-154 -124 0
-155 -125 0
-156 -126 0
-190 -124 0
-191 -125 0
-192 -126 0
-208 -124 0
-209 -125 0
-210 -126 0
-211 -124 0
-212 -125 0
-213 -126 0
-367 -124 0
-368 -125 0
-369 -126 0
-466 -124 0
-467 -125 0
-468 -126 0
-172 -127 0
-173 -128 0
-174 -129 0
-376 -127 0
-377 -128 0
-378 -129 0
-394 -127 0
-395 -128 0
-396 -129 0
-406 -127 0
-407 -128 0
-408 -129 0
-172 -130 0
-173 -131 0
-174 -132 0
-148 -133 0
-149 -134 0
-150 -135 0
-157 -133 0
-158 -134 0
-159 -135 0
-169 -133 0
-170 -134 0
-171 -135 0
-373 -133 0
-374 -134 0
-375 -135 0
-205 -136 0
-206 -137 0
-207 -138 0
-262 -136 0
-263 -137 0
-264 -138 0
-490 -136 0
-491 -137 0
-492 -138 0
-244 -139 0
-245 -140 0
-246 -141 0
-412 -139 0
-413 -140 0
-414 -141 0
-172 -142 0
-173 -143 0
-174 -144 0
-250 -142 0
-251 -143 0
-252 -144 0
-277 -142 0
-278 -143 0
-279 -144 0
-370 -142 0
-371 -143 0
-372 -144 0
-151 -145 0
-152 -146 0
-153 -147 0
-232 -145 0
-233 -146 0
-234 -147 0
-367 -145 0
-368 -146 0
-369 -147 0
-442 -145 0
-443 -146 0
-444 -147 0
-514 -145 0
-515 -146 0
-516 -147 0
-223 -148 0
-224 -149 0
-225 -150 0
-277 -148 0
-278 -149 0
-279 -150 0
-349 -148 0
-350 -149 0
-351 -150 0
-169 -151 0
-170 -152 0
-171 -153 0
-205 -151 0
-206 -152 0
-207 -153 0
-340 -151 0
-341 -152 0
-342 -153 0
-475 -151 0
-476 -152 0
-477 -153 0
-481 -151 0
-482 -152 0
-483 -153 0
-160 -154 0
-161 -155 0
-162 -156 0
-298 -154 0
-299 -155 0
-300 -156 0
-310 -154 0
-311 -155 0
-312 -156 0
-361 -154 0
-362 -155 0
-363 -156 0
-325 -157 0
-326 -158 0
-327 -159 0
-349 -157 0
-350 -158 0
-351 -159 0
-460 -157 0
-461 -158 0
-462 -159 0
-199 -160 0
-200 -161 0
-201 -162 0
-304 -160 0
-305 -161 0
-306 -162 0
-469 -160 0
-470 -161 0
-471 -162 0
-262 -163 0
-263 -164 0
-264 -165 0
-472 -163 0
-473 -164 0
-474 -165 0
-505 -163 0
-506 -164 0
-507 -165 0
-304 -166 0
-305 -167 0
-306 -168 0
-313 -166 0
-314 -167 0
-315 -168 0
-364 -166 0
-365 -167 0
-366 -168 0
-466 -166 0
-467 -167 0
-468 -168 0
-262 -169 0
-263 -170 0
-264 -171 0
-370 -169 0
-371 -170 0
-372 -171 0
-457 -169 0
-458 -170 0
-459 -171 0
-271 -172 0
-272 -173 0
-273 -174 0
-403 -172 0
-404 -173 0
-405 -174 0
-424 -172 0
-425 -173 0
-426 -174 0
-508 -172 0
-509 -173 0
-510 -174 0
-211 -175 0
-212 -176 0
-213 -177 0
-292 -175 0
-293 -176 0
-294 -177 0
-418 -175 0
-419 -176 0
-420 -177 0
-361 -178 0
-362 -179 0
-363 -180 0
-364 -178 0
-365 -179 0
-366 -180 0
-373 -178 0
-374 -179 0
-375 -180 0
-433 -178 0
-434 -179 0
-435 -180 0
-460 -178 0
-461 -179 0
-462 -180 0
-199 -181 0
-200 -182 0
-201 -183 0
-250 -181 0
-251 -182 0
-252 -183 0
-361 -181 0
-362 -182 0
-363 -183 0
-406 -181 0
-407 -182 0
-408 -183 0
-295 -184 0
-296 -185 0
-297 -186 0
-346 -184 0
-347 -185 0
-348 -186 0
-364 -184 0
-365 -185 0
-366 -186 0
-385 -184 0
-386 -185 0
-387 -186 0
-262 -187 0
-263 -188 0
-264 -189 0
-355 -187 0
-356 -188 0
-357 -189 0
-394 -187 0
-395 -188 0
-396 -189 0
-499 -187 0
-500 -188 0
-501 -189 0
-232 -190 0
-233 -191 0
-234 -192 0
-256 -190 0
-257 -191 0
-258 -192 0
-310 -193 0
-311 -194 0
-312 -195 0
-370 -193 0
-371 -194 0
-372 -195 0
-502 -193 0
-503 -194 0
-504 -195 0
-508 -193 0
-509 -194 0
-510 -195 0
-517 -199 0
-518 -200 0
-519 -201 0
-328 -202 0
-329 -203 0
-330 -204 0
-361 -202 0
-362 -203 0
-363 -204 0
-460 -202 0
-461 -203 0
-462 -204 0
-319 -205 0
-320 -206 0
-321 -207 0
-346 -205 0
-347 -206 0
-348 -207 0
-214 -208 0
-215 -209 0
-216 -210 0
-253 -208 0
-254 -209 0
-255 -210 0
-265 -208 0
-266 -209 0
-267 -210 0
-304 -208 0
-305 -209 0
-306 -210 0
-337 -208 0
-338 -209 0
-339 -210 0
-391 -211 0
-392 -212 0
-393 -213 0
-418 -211 0
-419 -212 0
-420 -213 0
-472 -211 0
-473 -212 0
-474 -213 0
-508 -211 0
-509 -212 0
-510 -213 0
-331 -214 0
-332 -215 0
-333 -216 0
-415 -214 0
-416 -215 0
-417 -216 0
-502 -214 0
-503 -215 0
-504 -216 0
-511 -214 0
-512 -215 0
-513 -216 0
-250 -217 0
-251 -218 0
-252 -219 0
-469 -217 0
-470 -218 0
-471 -219 0
-487 -217 0
-488 -218 0
-489 -219 0
-454 -220 0
-455 -221 0
-456 -222 0
-484 -220 0
-485 -221 0
-486 -222 0
-472 -223 0
-473 -224 0
-474 -225 0
-334 -226 0
-335 -227 0
-336 -228 0
-241 -229 0
-242 -230 0
-243 -231 0
-337 -229 0
-338 -230 0
-339 -231 0
-499 -229 0
-500 -230 0
-501 -231 0
-439 -232 0
-440 -233 0
-441 -234 0
-445 -232 0
-446 -233 0
-447 -234 0
-508 -232 0
-509 -233 0
-510 -234 0
-265 -238 0
-266 -239 0
-267 -240 0
-280 -238 0
-281 -239 0
-282 -240 0
-523 -238 0
-524 -239 0
-525 -240 0
-280 -241 0
-281 -242 0
-282 -243 0
-487 -241 0
-488 -242 0
-489 -243 0
-388 -244 0
-389 -245 0
-390 -246 0
-499 -244 0
-500 -245 0
-501 -246 0
-361 -247 0
-362 -248 0
-363 -249 0
-502 -247 0
-503 -248 0
-504 -249 0
-463 -250 0
-464 -251 0
-465 -252 0
-436 -253 0
-437 -254 0
-438 -255 0
-445 -253 0
-446 -254 0
-447 -255 0
-370 -256 0
-371 -257 0
-372 -258 0
-286 -259 0
-287 -260 0
-288 -261 0
-298 -259 0
-299 -260 0
-300 -261 0
-508 -259 0
-509 -260 0
-510 -261 0
-358 -262 0
-359 -263 0
-360 -264 0
-400 -262 0
-401 -263 0
-402 -264 0
-409 -262 0
-410 -263 0
-411 -264 0
-481 -265 0
-482 -266 0
-483 -267 0
-514 -268 0
-515 -269 0
-516 -270 0
-517 -271 0
-518 -272 0
-519 -273 0
-472 -274 0
-473 -275 0
-474 -276 0
-322 -277 0
-323 -278 0
-324 -279 0
-514 -277 0
-515 -278 0
-516 -279 0
-367 -280 0
-368 -281 0
-369 -282 0
-451 -280 0
-452 -281 0
-453 -282 0
-319 -283 0
-320 -284 0
-321 -285 0
-364 -283 0
-365 -284 0
-366 -285 0
-367 -283 0
-368 -284 0
-369 -285 0
-397 -283 0
-398 -284 0
-399 -285 0
-430 -283 0
-431 -284 0
-432 -285 0
-436 -283 0
-437 -284 0
-438 -285 0
-505 -283 0
-506 -284 0
-507 -285 0
-292 -286 0
-293 -287 0
-294 -288 0
-328 -286 0
-329 -287 0
-330 -288 0
-367 -286 0
-368 -287 0
-369 -288 0
-406 -286 0
-407 -287 0
-408 -288 0
-415 -286 0
-416 -287 0
-417 -288 0
-424 -286 0
-425 -287 0
-426 -288 0
-298 -289 0
-299 -290 0
-300 -291 0
-319 -289 0
-320 -290 0
-321 -291 0
-349 -289 0
-350 -290 0
-351 -291 0
-343 -292 0
-344 -293 0
-345 -294 0
-346 -292 0
-347 -293 0
-348 -294 0
-424 -292 0
-425 -293 0
-426 -294 0
-325 -295 0
-326 -296 0
-327 -297 0
-403 -295 0
-404 -296 0
-405 -297 0
-481 -295 0
-482 -296 0
-483 -297 0
-451 -298 0
-452 -299 0
-453 -300 0
-337 -301 0
-338 -302 0
-339 -303 0
-463 -301 0
-464 -302 0
-465 -303 0
-520 -301 0
-521 -302 0
-522 -303 0
-376 -304 0
-377 -305 0
-378 -306 0
-481 -304 0
-482 -305 0
-483 -306 0
-343 -307 0
-344 -308 0
-345 -309 0
-484 -307 0
-485 -308 0
-486 -309 0
-463 -310 0
-464 -311 0
-465 -312 0
-439 -313 0
-440 -314 0
-441 -315 0
-445 -313 0
-446 -314 0
-447 -315 0
-442 -316 0
-443 -317 0
-444 -318 0
-373 -319 0
-374 -320 0
-375 -321 0
-433 -319 0
-434 -320 0
-435 -321 0
-355 -322 0
-356 -323 0
-357 -324 0
-394 -322 0
-395 -323 0
-396 -324 0
-508 -322 0
-509 -323 0
-510 -324 0
-421 -325 0
-422 -326 0
-423 -327 0
-340 -328 0
-341 -329 0
-342 -330 0
-436 -334 0
-437 -335 0
-438 -336 0
-496 -334 0
-497 -335 0
-498 -336 0
-409 -337 0
-410 -338 0
-411 -339 0
-427 -337 0
-428 -338 0
-429 -339 0
-385 -340 0
-386 -341 0
-387 -342 0
-421 -340 0
-422 -341 0
-423 -342 0
-514 -340 0
-515 -341 0
-516 -342 0
-412 -343 0
-413 -344 0
-414 -345 0
-430 -343 0
-431 -344 0
-432 -345 0
-487 -343 0
-488 -344 0
-489 -345 0
-496 -343 0
-497 -344 0
-498 -345 0
-400 -349 0
-401 -350 0
-402 -351 0
-382 -352 0
-383 -353 0
-384 -354 0
-406 -352 0
-407 -353 0
-408 -354 0
-427 -352 0
-428 -353 0
-429 -354 0
-478 -352 0
-479 -353 0
-480 -354 0
-364 -355 0
-365 -356 0
-366 -357 0
-376 -358 0
-377 -359 0
-378 -360 0
-469 -358 0
-470 -359 0
-471 -360 0
-502 -358 0
-503 -359 0
-504 -360 0
-457 -367 0
-458 -368 0
-459 -369 0
-382 -370 0
-383 -371 0
-384 -372 0
-430 -373 0
-431 -374 0
-432 -375 0
-505 -376 0
-506 -377 0
-507 -378 0
-403 -382 0
-404 -383 0
-405 -384 0
-457 -382 0
-458 -383 0
-459 -384 0
-496 -382 0
-497 -383 0
-498 -384 0
-523 -382 0
-524 -383 0
-525 -384 0
-406 -394 0
-407 -395 0
-408 -396 0
-427 -397 0
-428 -398 0
-429 -399 0
-433 -397 0
-434 -398 0
-435 -399 0
-487 -397 0
-488 -398 0
-489 -399 0
-445 -400 0
-446 -401 0
-447 -402 0
-409 -403 0
-410 -404 0
-411 -405 0
-496 -406 0
-497 -407 0
-498 -408 0
-448 -409 0
-449 -410 0
-450 -411 0
-514 -409 0
-515 -410 0
-516 -411 0
-457 -412 0
-458 -413 0
-459 -414 0
-502 -421 0
-503 -422 0
-504 -423 0
-475 -424 0
-476 -425 0
-477 -426 0
-520 -424 0
-521 -425 0
-522 -426 0
-490 -433 0
-491 -434 0
-492 -435 0
-511 -433 0
-512 -434 0
-513 -435 0
-493 -439 0
-494 -440 0
-495 -441 0
-523 -442 0
-524 -443 0
-525 -444 0
-496 -451 0
-497 -452 0
-498 -453 0
-514 -454 0
-515 -455 0
-516 -456 0
-505 -457 0
-506 -458 0
-507 -459 0
-496 -463 0
-497 -464 0
-498 -465 0
-484 -475 0
-485 -476 0
-486 -477 0
-487 -484 0
-488 -485 0
-489 -486 0
-490 -484 0
-491 -485 0
-492 -486 0
-520 -499 0
-521 -500 0
-522 -501 0
